TCS_Benchmarks/redos_fix/corpus1_output_distinct_415_414_0_0.txt
[^\n]*
([^\n]*)(Q_OBJECT)([^\n]*)
[^\n]*